
Log started (V11.0.0) Fri May 16 18:59:32 2008

Tried aggregator 1 time.
Reduced MIP has 240 rows, 8001 columns, and 16040 nonzeros.
Presolve time =    0.06 sec.
Clique table members: 200.
MIP emphasis: balance optimality and feasibility.
MIP search method: dynamic search.
Parallel mode: none, using 1 thread.
Root relaxation solution time =    0.37 sec.

        Nodes                                         Cuts/
   Node  Left     Objective  IInf  Best Integer     Best Node    ItCnt     Gap

*     0+    0                        21861.0000      500.9752      526   97.71%
*     0+    0                          505.0000      500.9752      526    0.80%
      0     0      501.0000    66      505.0000      Fract: 6      539    0.79%
*     0+    0                          504.0000      501.0000      539    0.60%
      0     2      501.0000    66      504.0000      501.0000      539    0.60%
    100    49      502.0000    46      504.0000      501.0000     4608    0.60%
    200    49        cutoff            504.0000      501.0000    11789    0.60%
    300    54      502.0000    50      504.0000      501.0000    19266    0.60%
    400    58        cutoff            504.0000      501.0000    27173    0.60%
    500    83      503.0000    41      504.0000      502.0000    34897    0.40%
    600    44        cutoff            504.0000      502.0000    52851    0.40%
    700    84        cutoff            504.0000      502.0000    67917    0.40%
    800   130      502.0000    67      504.0000      502.0000    72359    0.40%
    900   157      503.0000    65      504.0000      502.0000    76225    0.40%
   1000   191      503.0000    42      504.0000      502.0000    83560    0.40%
Elapsed time =  45.47 sec. (tree size =  1.04 MB, solutions = 3)
   1100   197      503.0000    38      504.0000      502.0000   114653    0.40%
   1200   228      502.0000    55      504.0000      502.0000   122206    0.40%
   1300   266      503.0000    36      504.0000      502.0000   144480    0.40%
   1400   284      503.0000    45      504.0000      502.0000   176871    0.40%
   1500   326        cutoff            504.0000      502.0000   190514    0.40%
   1600   389      503.0000    68      504.0000      502.0000   197809    0.40%
   1700   449      502.0000    80      504.0000      502.0000   203828    0.40%
   1800   483      503.0000    37      504.0000      502.0000   226943    0.40%
   1900   485        cutoff            504.0000      502.0000   261861    0.40%
   2000   497        cutoff            504.0000      502.0000   292061    0.40%
Elapsed time = 106.66 sec. (tree size =  2.90 MB, solutions = 3)
   2100   539      503.0000    61      504.0000      502.0000   312906    0.40%
   2200   623      503.0000    13      504.0000      502.0000   319801    0.40%
   2300   645        cutoff            504.0000      502.0000   348167    0.40%
   2400   681        cutoff            504.0000      502.0000   374294    0.40%
   2500   735      503.0000    66      504.0000      502.0000   389009    0.40%
   2600   767      503.0000    40      504.0000      502.0000   411672    0.40%
   2700   791      502.0000    67      504.0000      502.0000   435570    0.40%
   2800   867      502.0000    81      504.0000      502.0000   441726    0.40%
   2900   906      503.0000    51      504.0000      502.0000   481763    0.40%
   3000   952      503.0000    62      504.0000      502.0000   516990    0.40%
Elapsed time = 170.61 sec. (tree size =  5.70 MB, solutions = 3)
   3100   968      502.0000    57      504.0000      502.0000   530294    0.40%
   3200  1032      503.0000    56      504.0000      502.0000   547513    0.40%
   3300  1104      502.0000    64      504.0000      502.0000   563982    0.40%
   3400  1169        cutoff            504.0000      502.0000   583499    0.40%
   3500  1253      503.0000    71      504.0000      502.0000   589371    0.40%
   3600  1315      503.0000    60      504.0000      502.0000   606858    0.40%
   3700  1395      502.0000    96      504.0000      502.0000   614694    0.40%
   3800  1469        cutoff            504.0000      502.0000   625575    0.40%
   3900  1549      503.0000    67      504.0000      502.0000   637992    0.40%
   4000  1613      502.0000    62      504.0000      502.0000   652405    0.40%
Elapsed time = 215.70 sec. (tree size =  9.96 MB, solutions = 3)
   4100  1679      502.0000    74      504.0000      502.0000   664269    0.40%
   4200  1738      503.0000    47      504.0000      502.0000   689059    0.40%
   4300  1799    infeasible            504.0000      502.0000   716332    0.40%
   4400  1872      503.0000    43      504.0000      502.0000   726239    0.40%
   4500  1948      503.0000    74      504.0000      502.0000   732887    0.40%
   4600  2010      502.0000    77      504.0000      502.0000   740955    0.40%
   4700  2065      502.0000    80      504.0000      502.0000   761396    0.40%
   4800  2136    infeasible            504.0000      502.0000   771478    0.40%
   4900  2211      503.0000    43      504.0000      502.0000   781511    0.40%
   5000  2281    infeasible            504.0000      502.0000   795443    0.40%
Elapsed time = 266.08 sec. (tree size = 14.61 MB, solutions = 3)
   5100  2360      502.0000    80      504.0000      502.0000   805628    0.40%
   5200  2455      502.0000    79      504.0000      502.0000   813747    0.40%
   5300  2511    infeasible            504.0000      502.0000   823522    0.40%
   5400  2585      503.0000    83      504.0000      502.0000   837890    0.40%
   5500  2667      503.0000    69      504.0000      502.0000   852409    0.40%
   5600  2735      503.0000    65      504.0000      502.0000   865275    0.40%
   5700  2781      503.0000    50      504.0000      502.0000   892532    0.40%
   5800  2836      503.0000    45      504.0000      502.0000   907727    0.40%
   5900  2914      503.0000    43      504.0000      502.0000   928617    0.40%
   6000  2966    infeasible            504.0000      502.0000   940241    0.40%
Elapsed time = 327.36 sec. (tree size = 20.01 MB, solutions = 3)
   6100  3030      503.0000    48      504.0000      502.0000   952363    0.40%
   6200  3104      503.0000    86      504.0000      502.0000   963007    0.40%
   6300  3173      503.0000    54      504.0000      502.0000   975492    0.40%
   6400  3229      503.0000    82      504.0000      502.0000   989583    0.40%
   6500  3306      503.0000    79      504.0000      502.0000   997984    0.40%
   6600  3375      503.0000    81      504.0000      502.0000  1014315    0.40%
   6700  3433      502.0000    88      504.0000      502.0000  1025902    0.40%
   6800  3510      503.0000    56      504.0000      502.0000  1040442    0.40%
   6900  3572      502.0000    94      504.0000      502.0000  1059337    0.40%
   7000  3642    infeasible            504.0000      502.0000  1068167    0.40%
Elapsed time = 389.25 sec. (tree size = 26.16 MB, solutions = 3)
   7100  3714      503.0000    44      504.0000      502.0000  1081001    0.40%
   7200  3781      503.0000    39      504.0000      502.0000  1094008    0.40%
   7300  3851      503.0000    45      504.0000      502.0000  1106324    0.40%
   7400  3922      503.0000    52      504.0000      502.0000  1129158    0.40%
   7500  3982      503.0000    45      504.0000      502.0000  1146667    0.40%
   7600  4048      503.0000    49      504.0000      502.0000  1157551    0.40%
   7700  4110      503.0000    68      504.0000      502.0000  1178692    0.40%
   7800  4184      502.0000    79      504.0000      502.0000  1195368    0.40%
   7900  4241      503.0000    36      504.0000      502.0000  1204101    0.40%
   8000  4299      503.0000    67      504.0000      502.0000  1216979    0.40%
Elapsed time = 459.44 sec. (tree size = 32.59 MB, solutions = 3)
   8100  4364      503.0000    65      504.0000      502.0000  1231725    0.40%
   8200  4440      502.0000    38      504.0000      502.0000  1244375    0.40%
   8300  4511      503.0000    77      504.0000      502.0000  1263911    0.40%
   8400  4579      503.0000    52      504.0000      502.0000  1274679    0.40%
   8500  4649    infeasible            504.0000      502.0000  1290551    0.40%
   8600  4713    infeasible            504.0000      502.0000  1320027    0.40%
   8700  4784      503.0000    59      504.0000      502.0000  1333358    0.40%
   8800  4844      503.0000    75      504.0000      502.0000  1348584    0.40%
   8900  4902      503.0000    64      504.0000      502.0000  1369000    0.40%
   9000  4975      503.0000    65      504.0000      502.0000  1383773    0.40%
Elapsed time = 529.53 sec. (tree size = 39.41 MB, solutions = 3)
   9100  5039      503.0000    72      504.0000      502.0000  1408076    0.40%
   9200  5108      503.0000    24      504.0000      502.0000  1421172    0.40%
   9300  5152        cutoff            504.0000      502.0000  1437752    0.40%
*  9346+ 1217                          503.0000      502.0000  1454865    0.20%
   9400  1241    infeasible            503.0000      502.0000  1471487    0.20%
   9500  1306      502.0000    85      503.0000      502.0000  1488086    0.20%
   9600  1388      502.0000    75      503.0000      502.0000  1495492    0.20%
   9700  1466      502.0000    72      503.0000      502.0000  1505031    0.20%
   9800  1534      502.0000    64      503.0000      502.0000  1520628    0.20%
   9900  1603      502.0000     8      503.0000      502.0000  1529561    0.20%
  10000  1659      502.0000    56      503.0000      502.0000  1552103    0.20%
Elapsed time = 610.39 sec. (tree size = 13.21 MB, solutions = 4)
  10100  1711      502.0000    41      503.0000      502.0000  1584230    0.20%
  10200  1755      502.0000    31      503.0000      502.0000  1629253    0.20%
  10300  1775    infeasible            503.0000      502.0000  1696316    0.20%
  10400  1823      502.0000    43      503.0000      502.0000  1749854    0.20%
  10500  1880      502.0000    51      503.0000      502.0000  1765442    0.20%
  10600  1900    infeasible            503.0000      502.0000  1809637    0.20%
  10700  1985      502.0000    59      503.0000      502.0000  1819713    0.20%
  10800  2041      502.0000    14      503.0000      502.0000  1840851    0.20%
  10900  2118      502.0000    30      503.0000      502.0000  1857334    0.20%
  11000  2181      502.0000    66      503.0000      502.0000  1873170    0.20%
Elapsed time = 741.59 sec. (tree size = 18.67 MB, solutions = 4)
  11100  2249    infeasible            503.0000      502.0000  1885720    0.20%
* 11176+    1                          502.0000      502.0000  1890664    0.00%

Cover cuts applied:  441
Mixed integer rounding cuts applied:  7
Gomory fractional cuts applied:  2

Solution pool: 5 solutions saved.

MIP - Integer optimal solution:  Objective = 5.0200000000e+002
Solution time =  752.25 sec.  Iterations = 1890664  Nodes = 11176


Incumbent solution
Variable Name           Solution Value
Cmax                        502.000000
X_1_1                         1.000000
X_2_25                        1.000000
X_3_33                        1.000000
X_4_25                        1.000000
X_5_34                        1.000000
X_6_20                        1.000000
X_7_37                        1.000000
X_8_1                         1.000000
X_9_21                        1.000000
X_10_30                       1.000000
X_11_13                       1.000000
X_12_8                        1.000000
X_13_15                       1.000000
X_14_1                        1.000000
X_15_31                       1.000000
X_16_20                       1.000000
X_17_9                        1.000000
X_18_28                       1.000000
X_19_40                       1.000000
X_20_39                       1.000000
X_21_26                       1.000000
X_22_26                       1.000000
X_23_40                       1.000000
X_24_33                       1.000000
X_25_40                       1.000000
X_26_13                       1.000000
X_27_2                        1.000000
X_28_27                       1.000000
X_29_4                        1.000000
X_30_15                       1.000000
X_31_30                       1.000000
X_32_8                        1.000000
X_33_28                       1.000000
X_34_9                        1.000000
X_35_4                        1.000000
X_36_20                       1.000000
X_37_30                       1.000000
X_38_5                        1.000000
X_39_39                       1.000000
X_40_39                       1.000000
X_41_35                       1.000000
X_42_7                        1.000000
X_43_30                       1.000000
X_44_7                        1.000000
X_45_11                       1.000000
X_46_18                       1.000000
X_47_7                        1.000000
X_48_4                        1.000000
X_49_14                       1.000000
X_50_25                       1.000000
X_51_18                       1.000000
X_52_32                       1.000000
X_53_12                       1.000000
X_54_35                       1.000000
X_55_15                       1.000000
X_56_23                       1.000000
X_57_12                       1.000000
X_58_11                       1.000000
X_59_29                       1.000000
X_60_14                       1.000000
X_61_3                        1.000000
X_62_38                       1.000000
X_63_29                       1.000000
X_64_17                       1.000000
X_65_13                       1.000000
X_66_6                        1.000000
X_67_18                       1.000000
X_68_24                       1.000000
X_69_25                       1.000000
X_70_22                       1.000000
X_71_3                        1.000000
X_72_32                       1.000000
X_73_7                        1.000000
X_74_29                       1.000000
X_75_34                       1.000000
X_76_14                       1.000000
X_77_38                       1.000000
X_78_27                       1.000000
X_79_5                        1.000000
X_80_18                       1.000000
X_81_34                       1.000000
X_82_28                       1.000000
X_83_19                       1.000000
X_84_18                       1.000000
X_85_36                       1.000000
X_86_35                       1.000000
X_87_12                       1.000000
X_88_16                       1.000000
X_89_32                       1.000000
X_90_26                       1.000000
X_91_39                       1.000000
X_92_23                       1.000000
X_93_27                       1.000000
X_94_17                       1.000000
X_95_11                       1.000000
X_96_5                        1.000000
X_97_16                       1.000000
X_98_24                       1.000000
X_99_23                       1.000000
X_100_40                      1.000000
X_101_36                      1.000000
X_102_21                      1.000000
X_103_5                       1.000000
X_104_34                      1.000000
X_105_24                      1.000000
X_106_10                      1.000000
X_107_27                      1.000000
X_108_10                      1.000000
X_109_4                       1.000000
X_110_17                      1.000000
X_111_9                       1.000000
X_112_6                       1.000000
X_113_37                      1.000000
X_114_3                       1.000000
X_115_2                       1.000000
X_116_17                      1.000000
X_117_6                       1.000000
X_118_19                      1.000000
X_119_31                      1.000000
X_120_9                       1.000000
X_121_38                      1.000000
X_122_37                      1.000000
X_123_36                      1.000000
X_124_9                       1.000000
X_125_7                       1.000000
X_126_34                      1.000000
X_127_15                      1.000000
X_128_38                      1.000000
X_129_29                      1.000000
X_130_13                      1.000000
X_131_1                       1.000000
X_132_17                      1.000000
X_133_31                      1.000000
X_134_33                      1.000000
X_135_8                       1.000000
X_136_22                      1.000000
X_137_11                      1.000000
X_138_33                      1.000000
X_139_10                      1.000000
X_140_5                       1.000000
X_141_32                      1.000000
X_142_20                      1.000000
X_143_31                      1.000000
X_144_12                      1.000000
X_145_28                      1.000000
X_146_21                      1.000000
X_147_4                       1.000000
X_148_23                      1.000000
X_149_3                       1.000000
X_150_19                      1.000000
X_151_8                       1.000000
X_152_23                      1.000000
X_153_38                      1.000000
X_154_31                      1.000000
X_155_2                       1.000000
X_156_6                       1.000000
X_157_20                      1.000000
X_158_22                      1.000000
X_159_37                      1.000000
X_160_35                      1.000000
X_161_3                       1.000000
X_162_16                      1.000000
X_163_12                      1.000000
X_164_19                      1.000000
X_165_13                      1.000000
X_166_24                      1.000000
X_167_28                      1.000000
X_168_22                      1.000000
X_169_36                      1.000000
X_170_21                      1.000000
X_171_40                      1.000000
X_172_22                      1.000000
X_173_37                      1.000000
X_174_10                      1.000000
X_175_36                      1.000000
X_176_30                      1.000000
X_177_11                      1.000000
X_178_14                      1.000000
X_179_19                      1.000000
X_180_39                      1.000000
X_181_2                       1.000000
X_182_32                      1.000000
X_183_2                       1.000000
X_184_27                      1.000000
X_185_24                      1.000000
X_186_29                      1.000000
X_187_26                      1.000000
X_188_16                      1.000000
X_189_8                       1.000000
X_190_15                      1.000000
X_191_6                       1.000000
X_192_14                      1.000000
X_193_35                      1.000000
X_194_21                      1.000000
X_195_33                      1.000000
X_196_1                       1.000000
X_197_25                      1.000000
X_198_16                      1.000000
X_199_26                      1.000000
X_200_10                      1.000000
All other variables in the range 1-8001 are 0.
